c Instancia generada aleatoriamente
p edge 50 128
e 1 2
e 1 3
e 1 5
e 1 15
e 1 38
e 1 39
e 1 40
e 2 5
e 2 14
e 2 25
e 2 31
e 2 42
e 2 45
e 3 4
e 3 10
e 3 13
e 3 22
e 4 19
e 4 41
e 4 46
e 5 16
e 5 22
e 5 25
e 5 29
e 5 40
e 5 41
e 5 48
e 6 8
e 6 9
e 6 21
e 6 23
e 6 35
e 6 47
e 7 18
e 7 21
e 7 39
e 7 42
e 7 44
e 8 13
e 9 16
e 9 21
e 9 22
e 9 27
e 9 33
e 9 48
e 10 11
e 10 31
e 10 38
e 10 48
e 11 27
e 11 33
e 11 34
e 11 44
e 12 24
e 12 31
e 12 46
e 13 15
e 13 18
e 13 37
e 13 46
e 14 18
e 14 21
e 14 22
e 14 30
e 15 23
e 15 24
e 15 25
e 15 37
e 15 39
e 15 45
e 16 17
e 16 18
e 16 35
e 16 37
e 16 39
e 17 24
e 17 28
e 17 29
e 18 34
e 18 43
e 18 45
e 18 47
e 18 49
e 19 31
e 19 33
e 19 38
e 19 39
e 19 41
e 19 50
e 20 24
e 21 36
e 21 39
e 23 29
e 23 42
e 23 48
e 24 29
e 24 42
e 25 49
e 25 50
e 26 30
e 26 37
e 26 41
e 26 44
e 27 28
e 27 32
e 27 33
e 27 35
e 27 40
e 29 34
e 30 42
e 30 46
e 30 48
e 31 48
e 32 42
e 33 42
e 34 48
e 35 43
e 36 38
e 37 48
e 38 47
e 39 44
e 39 47
e 40 41
e 41 44
e 42 49
e 44 45
e 45 46
e 45 50
